30 30
5947 6
6844 7
2475 17
2608 4
5605 5
3611 16
1048 3
6833 2
3643 7
7318 26
4570 5
6256 2
5891 13
8787 6
5059 5
8967 3
305 10
2336 24
1994 20
1412 10
6835 23
3324 10
1922 6
1968 26
4453 16
8728 1
3955 29
5421 15
5775 27
6030 23
